(set-option :print-success false)
(set-logic QF_UF)
(declare-sort x95 0)
(declare-sort x16 0)
(declare-fun x40 (x16 x16) x16)
(declare-fun x58 () x16)
(declare-fun x114 (x16 x16) x16)
(declare-fun x105 () x16)
(declare-fun x60 () x16)
(declare-fun x79 () x16)
(declare-fun x126 () x16)
(assert (or (and (= x60 (x40 (x40 x60 x60) x60)) (and (and (and (= (x40 (x40 x79 x60) x60) x79) (= x105 (x40 (x40 x105 x60) x60))) (= x58 (x40 (x40 x58 x60) x60))) (= x126 (x40 (x40 x126 x60) x60)))) (or (and (= (x40 (x40 x60 x126) x126) x60) (and (= (x40 (x40 x126 x126) x126) x126) (and (= x58 (x40 (x40 x58 x126) x126)) (and (= x105 (x40 (x40 x105 x126) x126)) (= (x40 (x40 x79 x126) x126) x79))))) (or (and (= (x40 (x40 x60 x58) x58) x60) (and (and (and (= x105 (x40 (x40 x105 x58) x58)) (= x79 (x40 (x40 x79 x58) x58))) (= x58 (x40 (x40 x58 x58) x58))) (= x126 (x40 (x40 x126 x58) x58)))) (or (and (and (and (= x58 (x40 (x40 x58 x105) x105)) (and (= x79 (x40 (x40 x79 x105) x105)) (= (x40 (x40 x105 x105) x105) x105))) (= x126 (x40 (x40 x126 x105) x105))) (= (x40 (x40 x60 x105) x105) x60)) (and (= (x40 (x40 x60 x79) x79) x60) (and (and (= x58 (x40 (x40 x58 x79) x79)) (and (= x79 (x40 (x40 x79 x79) x79)) (= (x40 (x40 x105 x79) x79) x105))) (= (x40 (x40 x126 x79) x79) x126))))))))
(assert (let ((x63 (x40 x79 x60)) (x88 (x40 x60 x79)) (x84 (x40 x60 x126)) (x56 (x40 x60 x60)) (x130 (x40 x105 x126)) (x35 (x40 x105 x60)) (x50 (x40 x58 x58)) (x17 (x40 x58 x105)) (x23 (x40 x105 x79)) (x38 (x40 x79 x58)) (x150 (x40 x105 x105)) (x33 (x40 x79 x126)) (x72 (x40 x105 x58)) (x32 (x40 x126 x105)) (x143 (x40 x126 x126)) (x93 (x40 x126 x60)) (x31 (x40 x126 x58)) (x82 (x40 x60 x58)) (x62 (x40 x58 x60)) (x6 (x40 x79 x105)) (x146 (x40 x60 x105)) (x5 (x40 x126 x79)) (x19 (x40 x79 x79)) (x55 (x40 x58 x126)) (x97 (x40 x58 x79))) (let ((x67 (= x126 x19)) (x1 (= x60 x55)) (x86 (= x126 x50)) (x91 (= x60 x23)) (x103 (= x23 x105)) (x13 (= x146 x60)) (x42 (= x63 x58)) (x138 (= x105 x38)) (x115 (= x17 x58)) (x100 (= x5 x105)) (x75 (= x63 x126)) (x54 (= x79 x56)) (x4 (= x105 x93)) (x137 (= x62 x58)) (x89 (= x32 x79)) (x87 (= x126 x38)) (x21 (= x126 x55)) (x12 (= x126 x82)) (x34 (= x60 x143)) (x157 (= x58 x93)) (x37 (= x79 x143)) (x141 (= x79 x50)) (x59 (= x60 x33)) (x7 (= x126 x62)) (x65 (= x38 x79)) (x78 (= x55 x79)) (x83 (= x79 x84)) (x3 (= x79 x63)) (x14 (= x33 x58)) (x68 (= x19 x79)) (x18 (= x130 x105)) (x44 (= x62 x105)) (x156 (= x58 x19)) (x125 (= x33 x126)) (x2 (= x5 x126)) (x132 (= x35 x126)) (x133 (= x97 x60)) (x121 (= x105 x31)) (x158 (= x72 x105)) (x29 (= x79 x82)) (x24 (= x55 x105)) (x129 (= x93 x79)) (x108 (= x105 x150)) (x111 (= x88 x79)) (x30 (= x93 x60)) (x136 (= x35 x79)) (x45 (= x105 x56)) (x10 (= x105 x17)) (x151 (= x126 x97)) (x48 (= x88 x60)) (x26 (= x38 x60)) (x74 (= x79 x62)) (x20 (= x58 x72)) (x140 (= x50 x60)) (x147 (= x58 x31)) (x135 (= x143 x58)) (x101 (= x126 x143)) (x127 (= x6 x105)) (x47 (= x126 x130)) (x106 (= x55 x58)) (x99 (= x19 x105)) (x22 (= x82 x105)) (x11 (= x38 x58)) (x109 (= x146 x79)) (x120 (= x97 x105)) (x153 (= x23 x58)) (x52 (= x105 x143)) (x113 (= x5 x58)) (x139 (= x150 x58)) (x90 (= x63 x60)) (x27 (= x72 x60)) (x123 (= x126 x56)) (x25 (= x126 x150)) (x73 (= x130 x58)) (x61 (= x105 x146)) (x46 (= x32 x126)) (x148 (= x58 x88)) (x110 (= x84 x105)) (x118 (= x79 x23)) (x128 (= x105 x33)) (x116 (= x5 x79)) (x145 (= x126 x31)) (x107 (= x58 x6)) (x98 (= x58 x32)) (x66 (= x88 x126)) (x131 (= x31 x60)) (x85 (= x60 x150)) (x77 (= x105 x88)) (x159 (= x60 x32)) (x9 (= x84 x58)) (x36 (= x60 x62)) (x76 (= x126 x146)) (x92 (= x79 x97)) (x28 (= x58 x35)) (x81 (= x17 x79)) (x71 (= x50 x105)) (x104 (= x35 x60)) (x144 (= x72 x79)) (x119 (= x17 x126)) (x155 (= x79 x150)) (x102 (= x63 x105)) (x39 (= x72 x126)) (x51 (= x60 x6)) (x57 (= x105 x35)) (x15 (= x50 x58)) (x70 (= x60 x5)) (x49 (= x79 x31)) (x80 (= x130 x79)) (x112 (= x84 x126)) (x149 (= x60 x56)) (x134 (= x60 x84)) (x8 (= x56 x58)) (x94 (= x126 x6)) (x64 (= x58 x146)) (x96 (= x58 x82)) (x122 (= x126 x93)) (x43 (= x79 x6)) (x41 (= x97 x58)) (x154 (= x19 x60)) (x69 (= x60 x82)) (x117 (= x17 x60)) (x124 (= x105 x32)) (x152 (= x130 x60)) (x53 (= x33 x79)) (x142 (= x23 x126))) (and (and (and (and (and (and (and (or (or (or x119 (or x94 x25)) x46) x76) (or (or (or x39 (or x142 x25)) x47) x132)) (and (and (or (or x73 (or (or x153 x139) x20)) x28) (or (or x98 (or (or x139 x107) x115)) x64)) (and (and (or x136 (or x80 (or (or x155 x118) x144))) (or (or (or (or x155 x43) x81) x89) x109)) (and (or (or x124 (or x10 (or x127 x108))) x61) (or (or x18 (or (or x103 x108) x158)) x57))))) (and (or (or (or x27 (or x85 x91)) x152) x104) (or (or x159 (or (or x51 x85) x117)) x13))) (and (and (or (or x59 (or x26 (or x154 x51))) x90) (or (or (or (or x91 x154) x133) x70) x48)) (and (and (and (or (or x113 (or (or x156 x153) x41)) x148) (or (or (or (or x156 x107) x11) x14) x42)) (and (and (or (or (or x120 (or x103 x99)) x100) x77) (or (or (or x138 (or x127 x99)) x128) x102)) (and (or x3 (or x53 (or x65 (or x68 x43)))) (or x111 (or (or x92 (or x68 x118)) x116))))) (and (or x75 (or x125 (or (or x94 x67) x87))) (or x66 (or (or (or x67 x142) x151) x2)))))) (and (and (or (or (or x140 (or x26 x27)) x131) x69) (or (or x1 (or (or x133 x117) x140)) x36)) (and (and (and (and (or (or x49 (or (or x144 x65) x141)) x29) (or (or (or x141 (or x81 x92)) x78) x74)) (and (or x22 (or (or (or x158 x138) x71) x121)) (or (or (or (or x120 x10) x71) x24) x44))) (and (or x137 (or (or (or x41 x115) x15) x106)) (or (or x147 (or (or x20 x11) x15)) x96))) (and (or (or (or (or x39 x87) x86) x145) x12) (or (or (or x86 (or x119 x151)) x21) x7))))) (and (and (or (or (or x131 (or x70 x159)) x34) x30) (or x134 (or x34 (or (or x152 x59) x1)))) (and (and (and (or x157 (or x135 (or x147 (or x113 x98)))) (or (or (or x106 (or x73 x14)) x135) x9)) (and (and (or x129 (or x37 (or (or x89 x116) x49))) (or (or x37 (or x78 (or x53 x80))) x83)) (and (or x4 (or x52 (or x121 (or x124 x100)))) (or x110 (or (or x24 (or x18 x128)) x52))))) (and (or (or (or x145 (or x2 x46)) x101) x122) (or x112 (or x101 (or x21 (or x47 x125)))))))) (and (and (or x149 (or (or (or x90 x104) x36) x30)) (or x149 (or x134 (or (or x13 x48) x69)))) (and (and (or (or (or (or x76 x66) x12) x112) x123) (or x123 (or x122 (or (or x132 x75) x7)))) (and (and (or x8 (or (or (or x42 x28) x137) x157)) (or (or (or (or x148 x64) x96) x9) x8)) (and (and (or x45 (or (or (or x57 x102) x44) x4)) (or x45 (or (or x22 (or x77 x61)) x110))) (and (or (or (or (or x3 x136) x74) x129) x54) (or (or x83 (or x29 (or x109 x111))) x54))))))))))
(assert (let ((x120 (x40 x79 x79)) (x92 (x40 x126 x79)) (x41 (x40 x126 x58)) (x107 (x40 x105 x79)) (x5 (x40 x105 x105)) (x26 (x40 x60 x126)) (x94 (x40 x58 x105)) (x81 (x40 x79 x126)) (x115 (x40 x58 x126)) (x91 (x40 x60 x105)) (x20 (x40 x58 x60)) (x50 (x40 x79 x60)) (x11 (x40 x60 x58)) (x31 (x40 x58 x58)) (x89 (x40 x60 x60)) (x27 (x40 x126 x60)) (x156 (x40 x105 x58)) (x138 (x40 x79 x58)) (x117 (x40 x126 x126)) (x71 (x40 x58 x79)) (x142 (x40 x105 x126)) (x153 (x40 x79 x105)) (x55 (x40 x60 x79)) (x51 (x40 x105 x60)) (x67 (x40 x126 x105))) (let ((x130 (not (= x105 x94))) (x25 (not (= x105 x81))) (x13 (not (= x91 x60))) (x141 (not (= x79 x138))) (x154 (not (= x153 x79))) (x21 (not (= x58 x11))) (x150 (not (= x153 x105))) (x118 (not (= x105 x26))) (x85 (not (= x41 x105))) (x44 (not (= x142 x126))) (x158 (not (= x120 x79))) (x131 (not (= x58 x89))) (x74 (not (= x11 x126))) (x124 (not (= x79 x51))) (x33 (not (= x11 x105))) (x86 (not (= x115 x79))) (x15 (not (= x79 x67))) (x63 (not (= x20 x105))) (x84 (not (= x138 x58))) (x88 (not (= x79 x5))) (x145 (not (= x58 x51))) (x106 (not (= x58 x41))) (x77 (not (= x156 x126))) (x34 (not (= x120 x126))) (x36 (not (= x26 x60))) (x139 (not (= x92 x105))) (x133 (not (= x79 x117))) (x53 (not (= x94 x58))) (x98 (not (= x31 x58))) (x109 (not (= x41 x126))) (x96 (not (= x5 x60))) (x6 (not (= x138 x105))) (x108 (not (= x5 x105))) (x99 (not (= x105 x91))) (x73 (not (= x92 x58))) (x125 (not (= x58 x50))) (x101 (not (= x58 x20))) (x87 (not (= x79 x41))) (x49 (not (= x5 x58))) (x42 (not (= x120 x60))) (x143 (not (= x153 x58))) (x152 (not (= x5 x126))) (x146 (not (= x105 x142))) (x147 (not (= x142 x58))) (x136 (not (= x126 x55))) (x12 (not (= x67 x60))) (x17 (not (= x31 x105))) (x3 (not (= x126 x50))) (x100 (not (= x55 x79))) (x116 (not (= x89 x79))) (x93 (not (= x58 x107))) (x64 (not (= x27 x126))) (x48 (not (= x51 x60))) (x110 (not (= x138 x126))) (x97 (not (= x105 x89))) (x70 (not (= x27 x58))) (x157 (not (= x156 x60))) (x46 (not (= x58 x117))) (x151 (not (= x92 x79))) (x37 (not (= x58 x71))) (x140 (not (= x79 x91))) (x39 (not (= x79 x81))) (x22 (not (= x126 x71))) (x9 (not (= x60 x153))) (x2 (not (= x58 x91))) (x65 (not (= x71 x79))) (x19 (not (= x105 x55))) (x112 (not (= x142 x60))) (x103 (not (= x105 x117))) (x80 (not (= x58 x120))) (x134 (not (= x60 x50))) (x57 (not (= x126 x31))) (x76 (not (= x60 x138))) (x8 (not (= x71 x60))) (x132 (not (= x92 x60))) (x149 (not (= x60 x89))) (x28 (not (= x60 x107))) (x148 (not (= x126 x89))) (x35 (not (= x156 x105))) (x54 (not (= x126 x26))) (x102 (not (= x67 x126))) (x111 (not (= x126 x115))) (x69 (not (= x55 x60))) (x159 (not (= x26 x58))) (x137 (not (= x60 x94))) (x83 (not (= x91 x126))) (x128 (not (= x79 x20))) (x45 (not (= x81 x126))) (x90 (not (= x20 x60))) (x82 (not (= x79 x31))) (x1 (not (= x126 x107))) (x121 (not (= x79 x50))) (x43 (not (= x105 x51))) (x78 (not (= x156 x58))) (x47 (not (= x58 x55))) (x144 (not (= x156 x79))) (x119 (not (= x142 x79))) (x29 (not (= x117 x126))) (x104 (not (= x60 x11))) (x127 (not (= x115 x105))) (x24 (not (= x26 x79))) (x135 (not (= x58 x115))) (x62 (not (= x94 x79))) (x113 (not (= x58 x67))) (x7 (not (= x41 x60))) (x56 (not (= x51 x126))) (x32 (not (= x105 x67))) (x68 (not (= x105 x27))) (x4 (not (= x126 x92))) (x66 (not (= x60 x31))) (x18 (not (= x79 x11))) (x75 (not (= x81 x60))) (x38 (not (= x105 x50))) (x10 (not (= x79 x107))) (x14 (not (= x81 x58))) (x23 (not (= x105 x107))) (x129 (not (= x20 x126))) (x52 (not (= x79 x27))) (x155 (not (= x105 x71))) (x72 (not (= x105 x120))) (x123 (not (= x60 x117))) (x30 (not (= x27 x60))) (x61 (not (= x126 x94))) (x122 (not (= x115 x60))) (x59 (not (= x126 x153)))) (or (and (and (and (or x36 x30) (and (or x104 x90) (and (or x13 x48) (or x134 x69)))) (or x149 x149)) (and (and (and (and (or x122 x7) (and (and (or x137 x157) (or x8 x76)) (or x66 x66))) (or x104 x90)) (and (and (or x13 x48) (and (and (and (or x96 x96) (or x28 x9)) (or x137 x157)) (or x12 x112))) (and (or x134 x69) (and (or x75 x132) (and (and (or x9 x28) (or x42 x42)) (or x76 x8)))))) (and (or x36 x30) (and (or x123 x123) (and (and (or x75 x132) (or x112 x12)) (or x7 x122)))))) (or (or (or (and (and (and (or x68 x118) (and (and (or x85 x127) (and (or x139 x25) (or x146 x32))) (or x103 x103))) (and (and (and (or x43 x99) (and (and (and (or x108 x108) (or x150 x23)) (or x130 x35)) (or x32 x146))) (and (and (and (or x155 x6) (and (or x72 x72) (or x23 x150))) (or x25 x139)) (or x19 x38))) (and (and (or x85 x127) (and (and (or x155 x6) (or x130 x35)) (or x17 x17))) (or x63 x33)))) (and (or x97 x97) (and (and (or x63 x33) (and (or x99 x43) (or x19 x38))) (or x68 x118)))) (and (and (and (and (and (and (or x15 x119) (and (and (or x88 x88) (or x154 x10)) (or x144 x62))) (or x124 x140)) (and (and (and (and (or x158 x158) (or x10 x154)) (or x65 x141)) (or x39 x151)) (or x100 x121))) (and (or x18 x128) (and (and (or x82 x82) (and (or x62 x144) (or x65 x141))) (or x87 x86)))) (and (or x52 x24) (and (and (or x87 x86) (and (or x39 x151) (or x15 x119))) (or x133 x133)))) (and (or x116 x116) (and (and (or x18 x128) (and (or x100 x121) (or x140 x124))) (or x52 x24))))) (and (and (and (or x159 x70) (and (or x101 x21) (and (or x145 x2) (or x47 x125)))) (or x131 x131)) (and (and (and (or x101 x21) (and (and (and (or x84 x37) (or x53 x78)) (or x98 x98)) (or x135 x106))) (and (and (or x2 x145) (and (and (or x78 x53) (and (or x143 x93) (or x49 x49))) (or x147 x113))) (and (or x125 x47) (and (or x14 x73) (and (and (or x80 x80) (or x143 x93)) (or x84 x37)))))) (and (or x159 x70) (and (and (and (or x147 x113) (or x14 x73)) (or x106 x135)) (or x46 x46)))))) (and (and (and (or x54 x64) (and (or x29 x29) (and (or x111 x109) (and (or x45 x4) (or x44 x102))))) (and (and (and (and (or x4 x45) (and (and (or x59 x1) (or x34 x34)) (or x110 x22))) (or x3 x136)) (and (and (or x102 x44) (and (and (or x1 x59) (or x152 x152)) (or x61 x77))) (or x83 x56))) (and (or x74 x129) (and (or x109 x111) (and (or x57 x57) (and (or x77 x61) (or x22 x110))))))) (and (and (and (or x129 x74) (and (or x3 x136) (or x56 x83))) (or x64 x54)) (or x148 x148))))))))
(assert (or (= (x40 x60 x60) x60) (or (= (x40 x126 x126) x126) (or (= (x40 x58 x58) x58) (or (= x79 (x40 x79 x79)) (= (x40 x105 x105) x105))))))
(assert (and (or (= x60 (x40 x60 (x40 x60 x60))) (or (or (= x60 (x40 x58 (x40 x60 x58))) (or (= (x40 x105 (x40 x60 x105)) x60) (= (x40 x79 (x40 x60 x79)) x60))) (= x60 (x40 x126 (x40 x60 x126))))) (and (and (and (or (or (= x79 (x40 x126 (x40 x79 x126))) (or (= (x40 x58 (x40 x79 x58)) x79) (or (= x79 (x40 x105 (x40 x79 x105))) (= (x40 x79 (x40 x79 x79)) x79)))) (= x79 (x40 x60 (x40 x79 x60)))) (or (= (x40 x60 (x40 x105 x60)) x105) (or (or (or (= (x40 x79 (x40 x105 x79)) x105) (= (x40 x105 (x40 x105 x105)) x105)) (= x105 (x40 x58 (x40 x105 x58)))) (= x105 (x40 x126 (x40 x105 x126)))))) (or (= (x40 x60 (x40 x58 x60)) x58) (or (= (x40 x126 (x40 x58 x126)) x58) (or (or (= x58 (x40 x79 (x40 x58 x79))) (= (x40 x105 (x40 x58 x105)) x58)) (= (x40 x58 (x40 x58 x58)) x58))))) (or (or (= x126 (x40 x126 (x40 x126 x126))) (or (or (= x126 (x40 x105 (x40 x126 x105))) (= x126 (x40 x79 (x40 x126 x79)))) (= (x40 x58 (x40 x126 x58)) x126))) (= (x40 x60 (x40 x126 x60)) x126)))))
(assert (or (and (not (= (x40 x60 (x40 x60 x60)) x60)) (and (and (and (not (= x105 (x40 x60 (x40 x60 x105)))) (not (= (x40 x60 (x40 x60 x79)) x79))) (not (= (x40 x60 (x40 x60 x58)) x58))) (not (= (x40 x60 (x40 x60 x126)) x126)))) (or (or (and (not (= x60 (x40 x58 (x40 x58 x60)))) (and (and (and (not (= x79 (x40 x58 (x40 x58 x79)))) (not (= x105 (x40 x58 (x40 x58 x105))))) (not (= x58 (x40 x58 (x40 x58 x58))))) (not (= (x40 x58 (x40 x58 x126)) x126)))) (or (and (not (= (x40 x79 (x40 x79 x60)) x60)) (and (and (and (not (= x105 (x40 x79 (x40 x79 x105)))) (not (= (x40 x79 (x40 x79 x79)) x79))) (not (= (x40 x79 (x40 x79 x58)) x58))) (not (= x126 (x40 x79 (x40 x79 x126)))))) (and (and (and (not (= (x40 x105 (x40 x105 x58)) x58)) (and (not (= x79 (x40 x105 (x40 x105 x79)))) (not (= x105 (x40 x105 (x40 x105 x105)))))) (not (= (x40 x105 (x40 x105 x126)) x126))) (not (= (x40 x105 (x40 x105 x60)) x60))))) (and (and (not (= x126 (x40 x126 (x40 x126 x126)))) (and (not (= (x40 x126 (x40 x126 x58)) x58)) (and (not (= x79 (x40 x126 (x40 x126 x79)))) (not (= (x40 x126 (x40 x126 x105)) x105))))) (not (= x60 (x40 x126 (x40 x126 x60))))))))
(assert (let ((x72 (= x126 (x40 x126 x126))) (x150 (= x79 (x40 x79 x79))) (x108 (= (x40 x105 x105) x105)) (x23 (= x58 (x40 x58 x58))) (x130 (= x60 (x40 x60 x60)))) (and (and (and (and (and (or (not (= x60 (x40 x60 x79))) x150) (or (not (= (x40 x60 x105) x60)) x108)) (or (not (= (x40 x60 x58) x60)) x23)) (or x72 (not (= (x40 x60 x126) x60)))) (or (not x130) x130)) (and (and (or (not (= x126 (x40 x126 x60))) x130) (and (or (not x72) x72) (and (or x23 (not (= (x40 x126 x58) x126))) (and (or (not (= x126 (x40 x126 x105))) x108) (or x150 (not (= (x40 x126 x79) x126))))))) (and (and (or x130 (not (= x58 (x40 x58 x60)))) (and (and (or (not x23) x23) (and (or x108 (not (= (x40 x58 x105) x58))) (or x150 (not (= (x40 x58 x79) x58))))) (or x72 (not (= x58 (x40 x58 x126)))))) (and (and (and (or (not (= x105 (x40 x105 x126))) x72) (and (or (not (= x105 (x40 x105 x58))) x23) (and (or x108 (not x108)) (or x150 (not (= (x40 x105 x79) x105)))))) (or (not (= x105 (x40 x105 x60))) x130)) (and (and (and (and (or x108 (not (= x79 (x40 x79 x105)))) (or (not x150) x150)) (or (not (= (x40 x79 x58) x79)) x23)) (or (not (= x79 (x40 x79 x126))) x72)) (or x130 (not (= (x40 x79 x60) x79))))))))))
(assert (and (and (not (= x58 x60)) (and (not (= x126 x58)) (and (not (= x79 x60)) (and (and (not (= x79 x58)) (and (not (= x105 x60)) (and (not (= x126 x105)) (and (not (= x105 x58)) (not (= x79 x105)))))) (not (= x79 x126)))))) (not (= x126 x60))))
(assert (or (and (and (and (not (= (x40 (x40 x58 x60) x60) x58)) (and (not (= x105 (x40 (x40 x105 x60) x60))) (not (= x79 (x40 (x40 x79 x60) x60))))) (not (= (x40 (x40 x126 x60) x60) x126))) (not (= (x40 (x40 x60 x60) x60) x60))) (or (or (or (and (not (= x60 (x40 (x40 x60 x105) x105))) (and (and (and (not (= x105 (x40 (x40 x105 x105) x105))) (not (= (x40 (x40 x79 x105) x105) x79))) (not (= (x40 (x40 x58 x105) x105) x58))) (not (= (x40 (x40 x126 x105) x105) x126)))) (and (not (= x60 (x40 (x40 x60 x79) x79))) (and (not (= x126 (x40 (x40 x126 x79) x79))) (and (and (not (= (x40 (x40 x105 x79) x79) x105)) (not (= x79 (x40 (x40 x79 x79) x79)))) (not (= x58 (x40 (x40 x58 x79) x79))))))) (and (not (= (x40 (x40 x60 x58) x58) x60)) (and (not (= x126 (x40 (x40 x126 x58) x58))) (and (not (= x58 (x40 (x40 x58 x58) x58))) (and (not (= x105 (x40 (x40 x105 x58) x58))) (not (= x79 (x40 (x40 x79 x58) x58)))))))) (and (and (not (= x126 (x40 (x40 x126 x126) x126))) (and (and (not (= x79 (x40 (x40 x79 x126) x126))) (not (= (x40 (x40 x105 x126) x126) x105))) (not (= x58 (x40 (x40 x58 x126) x126))))) (not (= (x40 (x40 x60 x126) x126) x60))))))
(assert (and (or (= (x40 x60 (x40 x60 x60)) x60) (or (or (= x58 (x40 x58 (x40 x60 x58))) (or (= (x40 x79 (x40 x60 x79)) x79) (= x105 (x40 x105 (x40 x60 x105))))) (= x126 (x40 x126 (x40 x60 x126))))) (and (and (and (or (or (or (= (x40 x58 (x40 x79 x58)) x58) (or (= (x40 x79 (x40 x79 x79)) x79) (= x105 (x40 x105 (x40 x79 x105))))) (= (x40 x126 (x40 x79 x126)) x126)) (= (x40 x60 (x40 x79 x60)) x60)) (or (or (= (x40 x126 (x40 x105 x126)) x126) (or (= x58 (x40 x58 (x40 x105 x58))) (or (= (x40 x79 (x40 x105 x79)) x79) (= (x40 x105 (x40 x105 x105)) x105)))) (= x60 (x40 x60 (x40 x105 x60))))) (or (or (= x126 (x40 x126 (x40 x58 x126))) (or (or (= x79 (x40 x79 (x40 x58 x79))) (= x105 (x40 x105 (x40 x58 x105)))) (= x58 (x40 x58 (x40 x58 x58))))) (= x60 (x40 x60 (x40 x58 x60))))) (or (= (x40 x60 (x40 x126 x60)) x60) (or (= (x40 x126 (x40 x126 x126)) x126) (or (or (= (x40 x79 (x40 x126 x79)) x79) (= x105 (x40 x105 (x40 x126 x105)))) (= (x40 x58 (x40 x126 x58)) x58)))))))
(assert (let ((x72 (x40 x126 x126)) (x130 (x40 x60 x60)) (x23 (x40 x58 x58)) (x150 (x40 x79 x79)) (x108 (x40 x105 x105))) (or (and (not (= x60 x130)) (and (not (= x72 x60)) (and (and (not (= x108 x60)) (not (= x60 x150))) (not (= x60 x23))))) (or (or (and (not (= x58 x130)) (and (and (and (not (= x58 x108)) (not (= x150 x58))) (not (= x58 x23))) (not (= x58 x72)))) (or (and (not (= x130 x79)) (and (and (not (= x23 x79)) (and (not (= x150 x79)) (not (= x79 x108)))) (not (= x72 x79)))) (and (and (and (not (= x105 x23)) (and (not (= x105 x108)) (not (= x150 x105)))) (not (= x72 x105))) (not (= x105 x130))))) (and (not (= x126 x130)) (and (not (= x72 x126)) (and (not (= x126 x23)) (and (not (= x108 x126)) (not (= x126 x150))))))))))
(assert (let ((x33 (x40 x105 x60)) (x68 (x40 x126 x60)) (x43 (x40 x58 x126)) (x130 (x40 x60 x105)) (x38 (x40 x60 x126)) (x32 (x40 x60 x79)) (x127 (x40 x60 x58)) (x6 (x40 x58 x79)) (x150 (x40 x79 x105)) (x118 (x40 x58 x60)) (x103 (x40 x105 x126)) (x146 (x40 x105 x58)) (x139 (x40 x79 x58)) (x19 (x40 x126 x126)) (x155 (x40 x79 x79)) (x23 (x40 x58 x105)) (x17 (x40 x126 x79)) (x108 (x40 x105 x105)) (x85 (x40 x126 x58)) (x97 (x40 x60 x60)) (x99 (x40 x79 x126)) (x72 (x40 x126 x105)) (x63 (x40 x79 x60)) (x25 (x40 x58 x58)) (x35 (x40 x105 x79))) (let ((x119 (not (= x72 x103))) (x71 (not (= x139 x6))) (x92 (not (= x17 x99))) (x89 (= (x40 x60 x97) x60)) (x87 (= (x40 x58 x43) x126)) (x142 (= x105 (x40 x126 x72))) (x128 (not (= x118 x127))) (x18 (= (x40 x58 x118) x60)) (x120 (= (x40 x79 x155) x79)) (x151 (= x126 (x40 x79 x99))) (x144 (not (= x23 x146))) (x10 (not (= x150 x35))) (x15 (= (x40 x105 x103) x126)) (x153 (not (= x35 x150))) (x133 (not (= x19 x19))) (x158 (not (= x155 x155))) (x52 (not (= x68 x38))) (x117 (= x126 (x40 x126 x19))) (x86 (not (= x85 x43))) (x107 (= x105 (x40 x79 x150))) (x88 (not (= x108 x108))) (x11 (not (= x127 x118))) (x27 (= (x40 x60 x38) x126)) (x51 (= (x40 x60 x130) x105)) (x91 (not (= x130 x33))) (x31 (= (x40 x58 x25) x58)) (x138 (= (x40 x58 x6) x79)) (x55 (not (= x32 x63))) (x156 (= (x40 x58 x23) x105)) (x67 (not (= x103 x72))) (x20 (= x58 (x40 x60 x127))) (x141 (not (= x6 x139))) (x115 (= x58 (x40 x126 x85))) (x65 (= (x40 x79 x139) x58)) (x39 (not (= x17 x99))) (x81 (= (x40 x126 x17) x79)) (x41 (not (= x43 x85))) (x121 (not (= x32 x63))) (x124 (not (= x33 x130))) (x94 (not (= x146 x23))) (x140 (= (x40 x105 x33) x60)) (x116 (not (= x97 x97))) (x24 (= x60 (x40 x126 x68))) (x82 (not (= x25 x25))) (x62 (= x58 (x40 x105 x146))) (x26 (not (= x68 x38))) (x5 (= (x40 x105 x108) x105)) (x50 (= x79 (x40 x60 x32))) (x100 (= x60 (x40 x79 x63))) (x154 (= (x40 x105 x35) x79))) (and (and (and (or (and x26 x27) (or (or (or (and x15 x119) (and x151 x39)) (and x86 x87)) (and x117 x133))) (and (and (or (or (and x81 x92) (or (and x71 x138) (or (and x10 x154) (and x158 x120)))) (and x55 x50)) (or (and x51 x91) (or (and x67 x142) (or (or (and x107 x153) (and x5 x88)) (and x156 x94))))) (or (and x11 x20) (or (and x115 x41) (or (or (and x62 x144) (and x65 x141)) (and x82 x31)))))) (or (or (and x24 x52) (or (and x128 x18) (or (and x124 x140) (and x100 x121)))) (and x116 x89))) (or (or (and (or x27 x26) (and (or x117 x133) (and (and (or x151 x39) (or x15 x119)) (or x86 x87)))) (or (or (and (and (and (and (or x154 x10) (or x120 x158)) (or x138 x71)) (or x81 x92)) (or x50 x55)) (and (and (and (and (or x5 x88) (or x153 x107)) (or x94 x156)) (or x142 x67)) (or x51 x91))) (and (and (and (and (or x141 x65) (or x144 x62)) (or x82 x31)) (or x41 x115)) (or x11 x20)))) (and (and (and (or x128 x18) (and (or x140 x124) (or x121 x100))) (or x24 x52)) (or x116 x89)))))))
(assert (let ((x139 (x40 x58 x79)) (x43 (x40 x126 x58)) (x6 (x40 x79 x58)) (x99 (x40 x126 x79)) (x38 (x40 x126 x60)) (x130 (x40 x105 x60)) (x32 (x40 x79 x60)) (x25 (x40 x58 x58)) (x33 (x40 x60 x105)) (x146 (x40 x58 x105)) (x72 (x40 x105 x126)) (x85 (x40 x58 x126)) (x19 (x40 x126 x126)) (x63 (x40 x60 x79)) (x103 (x40 x126 x105)) (x68 (x40 x60 x126)) (x127 (x40 x58 x60)) (x108 (x40 x105 x105)) (x35 (x40 x79 x105)) (x17 (x40 x79 x126)) (x118 (x40 x60 x58)) (x23 (x40 x105 x58)) (x155 (x40 x79 x79)) (x150 (x40 x105 x79)) (x97 (x40 x60 x60))) (and (and (and (and (and (and (and (and (or (or (or (= x108 x58) (or (= x108 x79) (= x108 x105))) (= x126 x108)) (= x108 x60)) (or (= x150 x60) (or (= x126 x150) (or (= x150 x58) (or (= x150 x105) (= x79 x150)))))) (or (or (or (= x23 x58) (or (= x23 x79) (= x105 x23))) (= x126 x23)) (= x60 x23))) (or (or (or (= x58 x72) (or (= x72 x105) (= x72 x79))) (= x72 x126)) (= x72 x60))) (or (= x130 x60) (or (or (= x58 x130) (or (= x79 x130) (= x105 x130))) (= x130 x126)))) (and (or (= x32 x60) (or (= x126 x32) (or (or (= x32 x79) (= x32 x105)) (= x58 x32)))) (and (and (or (or (= x126 x6) (or (= x58 x6) (or (= x6 x79) (= x105 x6)))) (= x60 x6)) (and (or (= x60 x155) (or (= x126 x155) (or (= x58 x155) (or (= x155 x105) (= x155 x79))))) (or (= x35 x60) (or (= x35 x126) (or (= x35 x58) (or (= x35 x105) (= x79 x35))))))) (or (or (= x126 x17) (or (= x58 x17) (or (= x79 x17) (= x105 x17)))) (= x17 x60))))) (and (or (or (or (= x58 x127) (or (= x105 x127) (= x127 x79))) (= x127 x126)) (= x60 x127)) (and (or (= x85 x60) (or (= x126 x85) (or (= x85 x58) (or (= x79 x85) (= x105 x85))))) (and (or (or (= x126 x25) (or (or (= x25 x79) (= x105 x25)) (= x25 x58))) (= x25 x60)) (and (or (or (or (or (= x139 x79) (= x139 x105)) (= x58 x139)) (= x139 x126)) (= x60 x139)) (or (= x60 x146) (or (or (= x146 x58) (or (= x79 x146) (= x146 x105))) (= x126 x146)))))))) (and (and (and (and (or (or (= x126 x99) (or (= x58 x99) (or (= x99 x105) (= x79 x99)))) (= x99 x60)) (or (or (= x126 x103) (or (= x103 x58) (or (= x103 x105) (= x103 x79)))) (= x60 x103))) (or (= x43 x60) (or (= x43 x126) (or (or (= x43 x79) (= x105 x43)) (= x58 x43))))) (or (= x19 x60) (or (or (or (= x19 x79) (= x19 x105)) (= x58 x19)) (= x19 x126)))) (or (= x38 x60) (or (or (= x58 x38) (or (= x38 x105) (= x79 x38))) (= x126 x38))))) (and (and (and (or (or (or (= x58 x118) (or (= x79 x118) (= x105 x118))) (= x126 x118)) (= x60 x118)) (and (or (or (= x126 x33) (or (= x33 x58) (or (= x33 x105) (= x33 x79)))) (= x60 x33)) (or (or (= x126 x63) (or (or (= x63 x105) (= x79 x63)) (= x58 x63))) (= x60 x63)))) (or (= x68 x60) (or (= x126 x68) (or (= x68 x58) (or (= x79 x68) (= x105 x68)))))) (or (= x97 x60) (or (or (or (= x79 x97) (= x97 x105)) (= x97 x58)) (= x126 x97)))))))
(assert (and (= x60 (x40 x58 x58)) (and (= x126 (x40 x60 x79)) (and (= x105 (x40 x126 x126)) (= x79 (x40 x60 x58))))))
(assert (let ((x6 (x40 x58 x79)) (x155 (x40 x79 x79)) (x25 (x40 x58 x58)) (x72 (x40 x126 x105)) (x127 (x40 x60 x58)) (x150 (x40 x79 x105)) (x130 (x40 x60 x105)) (x118 (x40 x58 x60)) (x38 (x40 x60 x126)) (x43 (x40 x58 x126)) (x19 (x40 x126 x126)) (x35 (x40 x105 x79)) (x108 (x40 x105 x105)) (x33 (x40 x105 x60)) (x63 (x40 x79 x60)) (x97 (x40 x60 x60)) (x32 (x40 x60 x79)) (x99 (x40 x79 x126)) (x146 (x40 x105 x58)) (x85 (x40 x126 x58)) (x17 (x40 x126 x79)) (x23 (x40 x58 x105)) (x103 (x40 x105 x126)) (x139 (x40 x79 x58)) (x68 (x40 x126 x60))) (and (and (and (and (and (and (not (= x85 x19)) (and (and (not (= x19 x17)) (and (not (= x17 x85)) (and (and (not (= x19 x72)) (and (not (= x85 x72)) (not (= x72 x17)))) (not (= x68 x72))))) (not (= x68 x17)))) (not (= x85 x68))) (not (= x68 x19))) (and (and (not (= x43 x118)) (and (not (= x25 x118)) (and (not (= x25 x43)) (and (not (= x6 x118)) (and (not (= x6 x43)) (and (and (not (= x23 x118)) (and (not (= x23 x43)) (and (not (= x23 x25)) (not (= x6 x23))))) (not (= x6 x25)))))))) (and (and (not (= x33 x103)) (and (not (= x146 x33)) (and (and (not (= x35 x33)) (and (and (and (not (= x33 x108)) (and (and (not (= x108 x35)) (not (= x146 x108))) (not (= x108 x103)))) (not (= x35 x146))) (not (= x35 x103)))) (not (= x103 x146))))) (and (not (= x99 x63)) (and (not (= x63 x139)) (and (and (and (not (= x155 x99)) (and (and (not (= x63 x150)) (and (and (not (= x150 x155)) (not (= x139 x150))) (not (= x99 x150)))) (not (= x139 x155)))) (not (= x63 x155))) (not (= x99 x139)))))))) (and (not (= x97 x38)) (and (not (= x97 x127)) (and (and (not (= x32 x97)) (and (not (= x38 x32)) (and (and (not (= x130 x97)) (and (not (= x130 x38)) (and (not (= x130 x32)) (not (= x130 x127))))) (not (= x127 x32))))) (not (= x38 x127)))))) (and (and (and (and (and (not (= x25 x127)) (and (and (and (not (= x139 x85)) (and (and (not (= x146 x127)) (and (and (not (= x139 x146)) (not (= x146 x25))) (not (= x85 x146)))) (not (= x139 x25)))) (not (= x127 x139))) (not (= x85 x25)))) (not (= x127 x85))) (and (and (not (= x72 x130)) (and (not (= x23 x130)) (and (not (= x23 x72)) (and (and (not (= x72 x150)) (and (and (not (= x130 x108)) (and (and (not (= x108 x150)) (not (= x23 x108))) (not (= x108 x72)))) (not (= x150 x23)))) (not (= x130 x150)))))) (and (not (= x17 x32)) (and (and (and (and (not (= x155 x17)) (and (not (= x155 x6)) (and (not (= x32 x35)) (and (not (= x35 x17)) (and (not (= x35 x155)) (not (= x6 x35))))))) (not (= x155 x32))) (not (= x17 x6))) (not (= x6 x32)))))) (and (and (not (= x38 x43)) (and (not (= x19 x43)) (and (not (= x38 x99)) (and (and (and (and (not (= x103 x19)) (and (not (= x43 x103)) (not (= x103 x99)))) (not (= x38 x103))) (not (= x99 x43))) (not (= x99 x19)))))) (not (= x38 x19)))) (and (not (= x97 x68)) (and (and (and (not (= x63 x97)) (and (not (= x63 x68)) (and (not (= x118 x63)) (and (not (= x97 x33)) (and (and (not (= x33 x118)) (not (= x63 x33))) (not (= x33 x68))))))) (not (= x118 x68))) (not (= x97 x118))))))))
(assert (or (or (or (or (and (not (= x60 (x40 (x40 x60 x79) x60))) (and (not (= (x40 (x40 x126 x79) x126) x126)) (and (and (not (= (x40 (x40 x105 x79) x105) x105)) (not (= (x40 (x40 x79 x79) x79) x79))) (not (= x58 (x40 (x40 x58 x79) x58)))))) (and (and (not (= x126 (x40 (x40 x126 x105) x126))) (and (and (not (= (x40 (x40 x79 x105) x79) x79)) (not (= (x40 (x40 x105 x105) x105) x105))) (not (= x58 (x40 (x40 x58 x105) x58))))) (not (= x60 (x40 (x40 x60 x105) x60))))) (and (and (and (not (= x58 (x40 (x40 x58 x58) x58))) (and (not (= x79 (x40 (x40 x79 x58) x79))) (not (= (x40 (x40 x105 x58) x105) x105)))) (not (= x126 (x40 (x40 x126 x58) x126)))) (not (= (x40 (x40 x60 x58) x60) x60)))) (and (and (not (= x126 (x40 (x40 x126 x126) x126))) (and (and (not (= x105 (x40 (x40 x105 x126) x105))) (not (= x79 (x40 (x40 x79 x126) x79)))) (not (= x58 (x40 (x40 x58 x126) x58))))) (not (= x60 (x40 (x40 x60 x126) x60))))) (and (not (= (x40 (x40 x60 x60) x60) x60)) (and (not (= (x40 (x40 x126 x60) x126) x126)) (and (and (not (= x105 (x40 (x40 x105 x60) x105))) (not (= x79 (x40 (x40 x79 x60) x79)))) (not (= (x40 (x40 x58 x60) x58) x58)))))))
(assert (or (and (not (= x60 (x40 (x40 x60 x60) x60))) (and (and (and (not (= (x40 (x40 x60 x105) x60) x105)) (not (= x79 (x40 (x40 x60 x79) x60)))) (not (= x58 (x40 (x40 x60 x58) x60)))) (not (= x126 (x40 (x40 x60 x126) x60))))) (or (and (and (not (= (x40 (x40 x126 x126) x126) x126)) (and (and (not (= (x40 (x40 x126 x105) x126) x105)) (not (= x79 (x40 (x40 x126 x79) x126)))) (not (= x58 (x40 (x40 x126 x58) x126))))) (not (= (x40 (x40 x126 x60) x126) x60))) (or (or (and (and (not (= x126 (x40 (x40 x79 x126) x79))) (and (not (= (x40 (x40 x79 x58) x79) x58)) (and (not (= x79 (x40 (x40 x79 x79) x79))) (not (= (x40 (x40 x79 x105) x79) x105))))) (not (= x60 (x40 (x40 x79 x60) x79)))) (and (not (= x60 (x40 (x40 x105 x60) x105))) (and (and (and (not (= (x40 (x40 x105 x105) x105) x105)) (not (= x79 (x40 (x40 x105 x79) x105)))) (not (= x58 (x40 (x40 x105 x58) x105)))) (not (= (x40 (x40 x105 x126) x105) x126))))) (and (not (= x60 (x40 (x40 x58 x60) x58))) (and (not (= x126 (x40 (x40 x58 x126) x58))) (and (not (= (x40 (x40 x58 x58) x58) x58)) (and (not (= (x40 (x40 x58 x105) x58) x105)) (not (= x79 (x40 (x40 x58 x79) x58)))))))))))
(assert (not (and (= (x40 x60 x60) x105) (and (= (x40 x60 x126) x58) (and (and (= x126 (x40 x60 x79)) (and (and (and (and (= (x40 x126 x58) x58) (and (= x60 (x40 x126 x79)) (and (and (and (and (= x60 (x40 x58 x58)) (and (and (= x58 (x40 x58 x105)) (and (and (and (and (= x58 (x40 x79 x79)) (and (= (x40 x79 x105) x79) (and (= x58 (x40 x105 x60)) (and (and (and (= x105 (x40 x105 x105)) (= x79 (x40 x105 x79))) (= x126 (x40 x105 x58))) (= x60 (x40 x105 x126)))))) (= (x40 x79 x58) x105)) (= x126 (x40 x79 x126))) (= x60 (x40 x79 x60)))) (= x105 (x40 x58 x79)))) (= (x40 x58 x126) x79)) (= (x40 x58 x60) x126)) (= x126 (x40 x126 x105))))) (= (x40 x126 x126) x105)) (= x79 (x40 x126 x60))) (= x60 (x40 x60 x105)))) (= (x40 x60 x58) x79))))))
(assert (let ((x23 (x40 x79 x79)) (x35 (x40 x60 x60)) (x150 (x40 x105 x105)) (x72 (x40 x58 x58)) (x130 (x40 x126 x126))) (let ((x6 (= x23 x79)) (x25 (= x58 x72)) (x127 (= x35 x60)) (x108 (= x105 x150)) (x85 (= x126 x130))) (let ((x32 (or (or (= x58 x130) (or x25 (or (= x58 x23) (= x58 x150)))) (= x35 x58))) (x155 (or (= x35 x105) (or (or (= x105 x72) (or (= x105 x23) x108)) (= x105 x130)))) (x139 (or x127 (or (= x130 x60) (or (or (= x150 x60) (= x60 x23)) (= x72 x60))))) (x146 (or (= x35 x126) (or x85 (or (= x126 x72) (or (= x126 x23) (= x150 x126)))))) (x17 (or (or (or (or (= x150 x79) x6) (= x72 x79)) (= x130 x79)) (= x35 x79)))) (and (and (and (and (and (and (or (not (= (x40 x79 x126) x79)) x146) (and (and (or x17 (not x6)) (or (not (= (x40 x79 x105) x79)) x155)) (or (not (= (x40 x79 x58) x79)) x32))) (or x139 (not (= x79 (x40 x79 x60))))) (and (or (not (= x105 (x40 x105 x60))) x139) (and (or (not (= (x40 x105 x126) x105)) x146) (and (and (or (not (= (x40 x105 x79) x105)) x17) (or x155 (not x108))) (or x32 (not (= (x40 x105 x58) x105))))))) (and (and (or (not (= (x40 x58 x126) x58)) x146) (and (and (or x155 (not (= (x40 x58 x105) x58))) (or x17 (not (= (x40 x58 x79) x58)))) (or x32 (not x25)))) (or (not (= (x40 x58 x60) x58)) x139))) (and (or (not (= x126 (x40 x126 x60))) x139) (and (and (or x32 (not (= x126 (x40 x126 x58)))) (and (or (not (= x126 (x40 x126 x105))) x155) (or (not (= x126 (x40 x126 x79))) x17))) (or (not x85) x146)))) (and (and (or x146 (not (= x60 (x40 x60 x126)))) (and (and (or (not (= x60 (x40 x60 x79))) x17) (or (not (= x60 (x40 x60 x105))) x155)) (or x32 (not (= x60 (x40 x60 x58)))))) (or x139 (not x127))))))))
(assert (let ((x99 (x40 x126 x79)) (x68 (x40 x60 x126)) (x85 (x40 x58 x126)) (x72 (x40 x105 x126)) (x97 (x40 x60 x60)) (x25 (x40 x58 x58)) (x139 (x40 x58 x79)) (x19 (x40 x126 x126)) (x127 (x40 x58 x60)) (x32 (x40 x79 x60)) (x130 (x40 x105 x60)) (x103 (x40 x126 x105)) (x23 (x40 x105 x58)) (x38 (x40 x126 x60)) (x108 (x40 x105 x105)) (x118 (x40 x60 x58)) (x63 (x40 x60 x79)) (x43 (x40 x126 x58)) (x17 (x40 x79 x126)) (x155 (x40 x79 x79)) (x35 (x40 x79 x105)) (x6 (x40 x79 x58)) (x33 (x40 x60 x105)) (x150 (x40 x105 x79)) (x146 (x40 x58 x105))) (or (and (not (= (x40 x97 x97) x60)) (and (and (not (= x58 (x40 x118 x118))) (and (not (= x105 (x40 x33 x33))) (not (= x79 (x40 x63 x63))))) (not (= x126 (x40 x68 x68))))) (or (and (and (not (= x126 (x40 x19 x19))) (and (and (not (= x79 (x40 x99 x99))) (not (= x105 (x40 x103 x103)))) (not (= x58 (x40 x43 x43))))) (not (= x60 (x40 x38 x38)))) (or (and (and (and (and (not (= (x40 x139 x139) x79)) (not (= x105 (x40 x146 x146)))) (not (= x58 (x40 x25 x25)))) (not (= x126 (x40 x85 x85)))) (not (= (x40 x127 x127) x60))) (or (and (and (and (and (not (= (x40 x150 x150) x79)) (not (= (x40 x108 x108) x105))) (not (= x58 (x40 x23 x23)))) (not (= (x40 x72 x72) x126))) (not (= (x40 x130 x130) x60))) (and (not (= (x40 x32 x32) x60)) (and (and (not (= (x40 x6 x6) x58)) (and (not (= x79 (x40 x155 x155))) (not (= x105 (x40 x35 x35))))) (not (= (x40 x17 x17) x126))))))))))
(assert (let ((x118 (x40 x105 x60)) (x153 (x40 x126 x60)) (x155 (x40 x79 x105)) (x103 (x40 x105 x126)) (x97 (x40 x79 x60)) (x6 (x40 x105 x79)) (x127 (x40 x126 x105)) (x63 (x40 x60 x105)) (x72 (x40 x126 x126)) (x19 (x40 x126 x58)) (x23 (x40 x58 x58)) (x38 (x40 x58 x126)) (x146 (x40 x105 x58)) (x68 (x40 x60 x79)) (x139 (x40 x58 x79)) (x150 (x40 x79 x79)) (x43 (x40 x79 x126)) (x88 (x40 x58 x60)) (x130 (x40 x60 x60)) (x99 (x40 x126 x79)) (x107 (x40 x60 x126)) (x25 (x40 x79 x58)) (x32 (x40 x58 x105)) (x108 (x40 x105 x105)) (x5 (x40 x60 x58))) (let ((x85 (= x58 x23)) (x35 (= x105 x108)) (x33 (= x126 x72)) (x17 (= x150 x79)) (x156 (= x60 x130))) (and (or (or (and x156 (and x156 (not x156))) (or (and (and (= x153 x60) (not (= x126 x130))) (= x107 x60)) (or (or (and (and (= x60 x97) (not (= x79 x130))) (= x60 x68)) (and (= x60 x63) (and (= x118 x60) (not (= x130 x105))))) (and (= x5 x60) (and (not (= x130 x58)) (= x88 x60)))))) (or (or (or (or (or (or (or (and (and x35 (not x35)) x35) (and (and (not (= x79 x108)) (= x155 x105)) (= x105 x6))) (and (= x146 x105) (and (= x32 x105) (not (= x108 x58))))) (and (= x105 x103) (and (= x127 x105) (not (= x108 x126))))) (and (= x105 x118) (and (= x63 x105) (not (= x108 x60))))) (or (or (and (= x43 x79) (and (= x79 x99) (not (= x150 x126)))) (or (and (and (not (= x150 x58)) (= x139 x79)) (= x79 x25)) (or (and (and (= x79 x6) (not (= x150 x105))) (= x79 x155)) (and (and (not x17) x17) x17)))) (and (and (= x68 x79) (not (= x150 x60))) (= x79 x97)))) (or (or (and (= x38 x58) (and (= x19 x58) (not (= x23 x126)))) (or (and (and (not x85) x85) x85) (or (and (= x32 x58) (and (not (= x105 x23)) (= x58 x146))) (and (= x58 x139) (and (not (= x79 x23)) (= x25 x58)))))) (and (= x58 x88) (and (= x58 x5) (not (= x60 x23)))))) (or (and (and (not (= x72 x60)) (= x126 x107)) (= x153 x126)) (or (or (and (and (not (= x72 x58)) (= x38 x126)) (= x19 x126)) (or (and (and (= x126 x43) (not (= x72 x79))) (= x99 x126)) (and (and (not (= x105 x72)) (= x126 x103)) (= x127 x126)))) (and x33 (and x33 (not x33))))))) (or (and (= x60 (x40 x60 x130)) (not (= x60 (x40 x130 x60)))) (or (and (not (= (x40 x72 x126) x126)) (= x126 (x40 x126 x72))) (or (or (and (not (= x79 (x40 x150 x79))) (= x79 (x40 x79 x150))) (and (= (x40 x105 x108) x105) (not (= (x40 x108 x105) x105)))) (and (= (x40 x58 x23) x58) (not (= (x40 x23 x58) x58))))))))))
(check-sat)
(exit)
